
Gurobi 11.0.1 (linux64, Java) logging started Sa 30 Mär 2024 20:13:41


Gurobi 11.0.1 (linux64, Java) logging started Sa 30 Mär 2024 20:15:56


Gurobi 11.0.1 (linux64, Java) logging started Mi 03 Apr 2024 21:01:27


Gurobi 11.0.1 (linux64) logging started Mi 03 Apr 2024 21:03:18

Set parameter LogFile to value "LP.log"

Gurobi 11.0.1 (linux64, Java) logging started Mi 03 Apr 2024 21:03:40


Gurobi 11.0.1 (linux64, Java) logging started Mi 03 Apr 2024 21:06:52

